\ SCIP STATISTICS
\   Problem name     : CapacitatedFacilityLocation-20-10
\   Variables        : 210 (210 binary, 0 integer, 0 implicit integer, 0 continuous)
\   Constraints      : 231
Minimize
 Obj: +397.874263128913 x0 +1268.68026122602 x1 +1137.88352967009 x2 +842.197995543171 x3 +848.971758153015 x4
      +1303.72156899047 x5 +786.410696843313 x6 +1158.39956616044 x7 +1291.63704365431 x8 +882.467276863989 x9
      +73.9260161366566 x10 +36.8897057224989 x11 +238.141088646529 x12 +121.155458527158 x13 +188.703941754916 x14
      +48.2162900481056 x15 +164.220927155296 x16 +204.554285784855 x17 +153.198257656468 x18 +75.4691904581041 x19
      +66.3725115459897 x20 +88.4595343088224 x21 +36.5124297743475 x22 +38.3307655215122 x23 +3.74144718271123 x24
      +130.249295271369 x25 +90.6763832420986 x26 +141.599192539431 x27 +54.3443107159741 x28 +98.4955823064871 x29
      +115.077731492402 x30 +144.32063253148 x31 +19.2993325228407 x32 +78.7964287050306 x33 +36.9209481219267 x34
      +205.067917539327 x35 +158.485386998591 x36 +185.941154996287 x37 +72.0484166145581 x38 +146.954296666553 x39
      +35.1335178382227 x40 +46.0921443795977 x41 +32.4782000646899 x42 +22.3837264769948 x43 +14.0176624786438 x44
      +64.2833066818339 x45 +33.663470021305 x46 +85.9020719207989 x47 +40.7057876052933 x48 +56.9532192066522 x49
      +18.1748689808507 x50 +25.8266025313758 x51 +25.0440638521884 x52 +9.82744206809895 x53 +11.3358932386318 x54
      +38.960494895675 x55 +22.1786915733694 x56 +55.4784791472577 x57 +24.7993370326638 x58 +33.7780621633327 x59
      +36.6774488374627 x60 +39.4740317923004 x61 +62.2681007425721 x62 +40.1919557274838 x63 +56.0344066253489 x64
      +66.0110771636218 x65 +85.3816372644797 x66 +38.7679701165865 x67 +21.395394895804 x68 +21.2577208436906 x69
      +35.2704569712125 x70 +69.9619547892718 x71 +143.104281442876 x72 +25.1429012797854 x73 +86.4016588332662 x74
      +134.978260418953 x75 +109.53037072351 x76 +222.269707790575 x77 +98.5804118016483 x78 +110.314284155833 x79
      +74.237458117891 x80 +91.391169156086 x81 +6.08487413826473 x82 +52.6418215093745 x83 +24.1198667725299 x84
      +125.722286010028 x85 +93.2554249684367 x86 +116.599230937916 x87 +51.4063764094616 x88 +94.2996452690458 x89
      +48.2550088702669 x90 +44.1701630168567 x91 +74.1992760398362 x92 +55.7265001214058 x93 +69.7908024071435 x94
      +55.0574636350514 x95 +84.9436942865076 x96 +18.7862364711073 x97 +43.8207225652364 x98 +26.6809199286188 x99
      +59.1397480865273 x100 +47.4999852696711 x101 +170.170857385492 x102 +84.7868202230987 x103 +127.950696136905 x104
      +39.4454367910385 x105 +77.162840771293 x106 +187.147179656606 x107 +127.476025641044 x108 +92.5155627351456 x109
      +194.363730566881 x110 +224.834600217108 x111 +62.1364459453369 x112 +157.876406725971 x113 +116.974563091864 x114
      +297.956217703181 x115 +257.298009604581 x116 +212.629193238328 x117 +117.559051748439 x118 +210.700327900195 x119
      +103.079610773187 x120 +100.590049919444 x121 +123.381329782173 x122 +109.38851490424 x123 +124.562890603631 x124
      +121.588679811474 x125 +160.936127170725 x126 +17.5588255676748 x127 +81.7994262054504 x128 +72.5258999714011 x129
      +24.3455672209393 x130 +20.3431425124929 x131 +47.1334204322409 x132 +30.9026606630684 x133 +41.9232867534594 x134
      +26.5745236745577 x135 +47.8896201014244 x136 +21.0700471647617 x137 +26.8602392614173 x138 +10.1537771096465 x139
      +100.446277357867 x140 +77.2017188811832 x141 +240.761245910917 x142 +135.916018887334 x143 +190.357779334533 x144
      +24.2026683328568 x145 +122.23045648044 x146 +237.373226117932 x147 +181.661339305545 x148 +124.172832172839 x149
      +127.778213591206 x150 +100.190317172601 x151 +288.42309159133 x152 +168.591875467883 x153 +230.747322785237 x154
      +31.0508465241649 x155 +148.702945006548 x156 +279.519715186017 x157 +220.103989610349 x158 +151.499993800649 x159
      +36.6587825701248 x160 +41.481781021603 x161 +44.6690655449892 x162 +35.1932169147181 x163 +43.3930205100736 x164
      +64.7332152038877 x165 +74.9297662247897 x166 +33.1117452852663 x167 +12.8804854815942 x168 +28.4355450875488 x169
      +57.3347571893963 x170 +70.2731300757834 x171 +41.3208963247692 x172 +42.0348269884732 x173 +25.5853728652921 x174
      +90.6447967914459 x175 +45.3083789935702 x176 +116.539286672105 x177 +61.5928170391086 x178 +83.5428816727541 x179
      +10.5762837190079 x180 +16.5639711250068 x181 +21.7410243031249 x182 +6.63687689780462 x183 +14.9773759778917 x184
      +31.1542667911334 x185 +30.6305966787981 x186 +33.117733573401 x187 +8.09935205455545 x188 +17.1554124587428 x189
      +98.8614947054328 x190 +115.128863846175 x191 +172.349937759382 x192 +93.6231204886658 x193 +115.861511041299 x194
      +137.397116476088 x195 +22.8153903309691 x196 +277.062938200959 x197 +163.573722521519 x198 +167.783751731267 x199
      +26.2555604856116 x200 +28.5052255515055 x201 +24.9624753065737 x202 +24.9884765202095 x203 +27.0961223139667 x204
      +39.8116668261077 x205 +45.0339673521872 x206 +13.9388453539281 x207 +13.0203279172962 x208 +20.9598584785656 x209
Subject to
 c0: +1 x10 +1 x11 +1 x12 +1 x13 +1 x14 +1 x15 +1 x16 +1 x17 +1 x18 +1 x19 >= +1
 c1: +1 x20 +1 x21 +1 x22 +1 x23 +1 x24 +1 x25 +1 x26 +1 x27 +1 x28 +1 x29 >= +1
 c2: +1 x30 +1 x31 +1 x32 +1 x33 +1 x34 +1 x35 +1 x36 +1 x37 +1 x38 +1 x39 >= +1
 c3: +1 x40 +1 x41 +1 x42 +1 x43 +1 x44 +1 x45 +1 x46 +1 x47 +1 x48 +1 x49 >= +1
 c4: +1 x50 +1 x51 +1 x52 +1 x53 +1 x54 +1 x55 +1 x56 +1 x57 +1 x58 +1 x59 >= +1
 c5: +1 x60 +1 x61 +1 x62 +1 x63 +1 x64 +1 x65 +1 x66 +1 x67 +1 x68 +1 x69 >= +1
 c6: +1 x70 +1 x71 +1 x72 +1 x73 +1 x74 +1 x75 +1 x76 +1 x77 +1 x78 +1 x79 >= +1
 c7: +1 x80 +1 x81 +1 x82 +1 x83 +1 x84 +1 x85 +1 x86 +1 x87 +1 x88 +1 x89 >= +1
 c8: +1 x90 +1 x91 +1 x92 +1 x93 +1 x94 +1 x95 +1 x96 +1 x97 +1 x98 +1 x99 >= +1
 c9: +1 x100 +1 x101 +1 x102 +1 x103 +1 x104 +1 x105 +1 x106 +1 x107 +1 x108 +1 x109 >= +1
 c10: +1 x110 +1 x111 +1 x112 +1 x113 +1 x114 +1 x115 +1 x116 +1 x117 +1 x118 +1 x119 >= +1
 c11: +1 x120 +1 x121 +1 x122 +1 x123 +1 x124 +1 x125 +1 x126 +1 x127 +1 x128 +1 x129 >= +1
 c12: +1 x130 +1 x131 +1 x132 +1 x133 +1 x134 +1 x135 +1 x136 +1 x137 +1 x138 +1 x139 >= +1
 c13: +1 x140 +1 x141 +1 x142 +1 x143 +1 x144 +1 x145 +1 x146 +1 x147 +1 x148 +1 x149 >= +1
 c14: +1 x150 +1 x151 +1 x152 +1 x153 +1 x154 +1 x155 +1 x156 +1 x157 +1 x158 +1 x159 >= +1
 c15: +1 x160 +1 x161 +1 x162 +1 x163 +1 x164 +1 x165 +1 x166 +1 x167 +1 x168 +1 x169 >= +1
 c16: +1 x170 +1 x171 +1 x172 +1 x173 +1 x174 +1 x175 +1 x176 +1 x177 +1 x178 +1 x179 >= +1
 c17: +1 x180 +1 x181 +1 x182 +1 x183 +1 x184 +1 x185 +1 x186 +1 x187 +1 x188 +1 x189 >= +1
 c18: +1 x190 +1 x191 +1 x192 +1 x193 +1 x194 +1 x195 +1 x196 +1 x197 +1 x198 +1 x199 >= +1
 c19: +1 x200 +1 x201 +1 x202 +1 x203 +1 x204 +1 x205 +1 x206 +1 x207 +1 x208 +1 x209 >= +1
 c20: +32 x10 +19 x20 +26 x30 +10 x40 +7 x50 +12 x60 +32 x70 +15 x80 +9 x90 +23 x100 +30 x110 +14 x120
  +6 x130 +28 x140 +32 x150 +10 x160 +12 x170 +6 x180 +29 x190 +5 x200 -24 x0 <= +0
 c21: +32 x11 +19 x21 +26 x31 +10 x41 +7 x51 +12 x61 +32 x71 +15 x81 +9 x91 +23 x101 +30 x111 +14 x121
  +6 x131 +28 x141 +32 x151 +10 x161 +12 x171 +6 x181 +29 x191 +5 x201 -287 x1 <= +0
 c22: +32 x12 +19 x22 +26 x32 +10 x42 +7 x52 +12 x62 +32 x72 +15 x82 +9 x92 +23 x102 +30 x112 +14 x122
  +6 x132 +28 x142 +32 x152 +10 x162 +12 x172 +6 x182 +29 x192 +5 x202 -228 x2 <= +0
 c23: +32 x13 +19 x23 +26 x33 +10 x43 +7 x53 +12 x63 +32 x73 +15 x83 +9 x93 +23 x103 +30 x113 +14 x123
  +6 x133 +28 x143 +32 x153 +10 x163 +12 x173 +6 x183 +29 x193 +5 x203 -114 x3 <= +0
 c24: +32 x14 +19 x24 +26 x34 +10 x44 +7 x54 +12 x64 +32 x74 +15 x84 +9 x94 +23 x104 +30 x114 +14 x124
  +6 x134 +28 x144 +32 x154 +10 x164 +12 x174 +6 x184 +29 x194 +5 x204 -108 x4 <= +0
 c25: +32 x15 +19 x25 +26 x35 +10 x45 +7 x55 +12 x65 +32 x75 +15 x85 +9 x95 +23 x105 +30 x115 +14 x125
  +6 x135 +28 x145 +32 x155 +10 x165 +12 x175 +6 x185 +29 x195 +5 x205 -283 x5 <= +0
 c26: +32 x16 +19 x26 +26 x36 +10 x46 +7 x56 +12 x66 +32 x76 +15 x86 +9 x96 +23 x106 +30 x116 +14 x126
  +6 x136 +28 x146 +32 x156 +10 x166 +12 x176 +6 x186 +29 x196 +5 x206 -96 x6 <= +0
 c27: +32 x17 +19 x27 +26 x37 +10 x47 +7 x57 +12 x67 +32 x77 +15 x87 +9 x97 +23 x107 +30 x117 +14 x127
  +6 x137 +28 x147 +32 x157 +10 x167 +12 x177 +6 x187 +29 x197 +5 x207 -244 x7 <= +0
 c28: +32 x18 +19 x28 +26 x38 +10 x48 +7 x58 +12 x68 +32 x78 +15 x88 +9 x98 +23 x108 +30 x118 +14 x128
  +6 x138 +28 x148 +32 x158 +10 x168 +12 x178 +6 x188 +29 x198 +5 x208 -258 x8 <= +0
 c29: +32 x19 +19 x29 +26 x39 +10 x49 +7 x59 +12 x69 +32 x79 +15 x89 +9 x99 +23 x109 +30 x119 +14 x129
  +6 x139 +28 x149 +32 x159 +10 x169 +12 x179 +6 x189 +29 x199 +5 x209 -144 x9 <= +0
 c30: +24 x0 +287 x1 +228 x2 +114 x3 +108 x4 +283 x5 +96 x6 +244 x7 +258 x8 +144 x9 >= +357
 c31: +1 x10 -1 x0 <= +0
 c32: +1 x11 -1 x1 <= +0
 c33: +1 x12 -1 x2 <= +0
 c34: +1 x13 -1 x3 <= +0
 c35: +1 x14 -1 x4 <= +0
 c36: +1 x15 -1 x5 <= +0
 c37: +1 x16 -1 x6 <= +0
 c38: +1 x17 -1 x7 <= +0
 c39: +1 x18 -1 x8 <= +0
 c40: +1 x19 -1 x9 <= +0
 c41: +1 x20 -1 x0 <= +0
 c42: +1 x21 -1 x1 <= +0
 c43: +1 x22 -1 x2 <= +0
 c44: +1 x23 -1 x3 <= +0
 c45: +1 x24 -1 x4 <= +0
 c46: +1 x25 -1 x5 <= +0
 c47: +1 x26 -1 x6 <= +0
 c48: +1 x27 -1 x7 <= +0
 c49: +1 x28 -1 x8 <= +0
 c50: +1 x29 -1 x9 <= +0
 c51: +1 x30 -1 x0 <= +0
 c52: +1 x31 -1 x1 <= +0
 c53: +1 x32 -1 x2 <= +0
 c54: +1 x33 -1 x3 <= +0
 c55: +1 x34 -1 x4 <= +0
 c56: +1 x35 -1 x5 <= +0
 c57: +1 x36 -1 x6 <= +0
 c58: +1 x37 -1 x7 <= +0
 c59: +1 x38 -1 x8 <= +0
 c60: +1 x39 -1 x9 <= +0
 c61: +1 x40 -1 x0 <= +0
 c62: +1 x41 -1 x1 <= +0
 c63: +1 x42 -1 x2 <= +0
 c64: +1 x43 -1 x3 <= +0
 c65: +1 x44 -1 x4 <= +0
 c66: +1 x45 -1 x5 <= +0
 c67: +1 x46 -1 x6 <= +0
 c68: +1 x47 -1 x7 <= +0
 c69: +1 x48 -1 x8 <= +0
 c70: +1 x49 -1 x9 <= +0
 c71: +1 x50 -1 x0 <= +0
 c72: +1 x51 -1 x1 <= +0
 c73: +1 x52 -1 x2 <= +0
 c74: +1 x53 -1 x3 <= +0
 c75: +1 x54 -1 x4 <= +0
 c76: +1 x55 -1 x5 <= +0
 c77: +1 x56 -1 x6 <= +0
 c78: +1 x57 -1 x7 <= +0
 c79: +1 x58 -1 x8 <= +0
 c80: +1 x59 -1 x9 <= +0
 c81: +1 x60 -1 x0 <= +0
 c82: +1 x61 -1 x1 <= +0
 c83: +1 x62 -1 x2 <= +0
 c84: +1 x63 -1 x3 <= +0
 c85: +1 x64 -1 x4 <= +0
 c86: +1 x65 -1 x5 <= +0
 c87: +1 x66 -1 x6 <= +0
 c88: +1 x67 -1 x7 <= +0
 c89: +1 x68 -1 x8 <= +0
 c90: +1 x69 -1 x9 <= +0
 c91: +1 x70 -1 x0 <= +0
 c92: +1 x71 -1 x1 <= +0
 c93: +1 x72 -1 x2 <= +0
 c94: +1 x73 -1 x3 <= +0
 c95: +1 x74 -1 x4 <= +0
 c96: +1 x75 -1 x5 <= +0
 c97: +1 x76 -1 x6 <= +0
 c98: +1 x77 -1 x7 <= +0
 c99: +1 x78 -1 x8 <= +0
 c100: +1 x79 -1 x9 <= +0
 c101: +1 x80 -1 x0 <= +0
 c102: +1 x81 -1 x1 <= +0
 c103: +1 x82 -1 x2 <= +0
 c104: +1 x83 -1 x3 <= +0
 c105: +1 x84 -1 x4 <= +0
 c106: +1 x85 -1 x5 <= +0
 c107: +1 x86 -1 x6 <= +0
 c108: +1 x87 -1 x7 <= +0
 c109: +1 x88 -1 x8 <= +0
 c110: +1 x89 -1 x9 <= +0
 c111: +1 x90 -1 x0 <= +0
 c112: +1 x91 -1 x1 <= +0
 c113: +1 x92 -1 x2 <= +0
 c114: +1 x93 -1 x3 <= +0
 c115: +1 x94 -1 x4 <= +0
 c116: +1 x95 -1 x5 <= +0
 c117: +1 x96 -1 x6 <= +0
 c118: +1 x97 -1 x7 <= +0
 c119: +1 x98 -1 x8 <= +0
 c120: +1 x99 -1 x9 <= +0
 c121: +1 x100 -1 x0 <= +0
 c122: +1 x101 -1 x1 <= +0
 c123: +1 x102 -1 x2 <= +0
 c124: +1 x103 -1 x3 <= +0
 c125: +1 x104 -1 x4 <= +0
 c126: +1 x105 -1 x5 <= +0
 c127: +1 x106 -1 x6 <= +0
 c128: +1 x107 -1 x7 <= +0
 c129: +1 x108 -1 x8 <= +0
 c130: +1 x109 -1 x9 <= +0
 c131: +1 x110 -1 x0 <= +0
 c132: +1 x111 -1 x1 <= +0
 c133: +1 x112 -1 x2 <= +0
 c134: +1 x113 -1 x3 <= +0
 c135: +1 x114 -1 x4 <= +0
 c136: +1 x115 -1 x5 <= +0
 c137: +1 x116 -1 x6 <= +0
 c138: +1 x117 -1 x7 <= +0
 c139: +1 x118 -1 x8 <= +0
 c140: +1 x119 -1 x9 <= +0
 c141: +1 x120 -1 x0 <= +0
 c142: +1 x121 -1 x1 <= +0
 c143: +1 x122 -1 x2 <= +0
 c144: +1 x123 -1 x3 <= +0
 c145: +1 x124 -1 x4 <= +0
 c146: +1 x125 -1 x5 <= +0
 c147: +1 x126 -1 x6 <= +0
 c148: +1 x127 -1 x7 <= +0
 c149: +1 x128 -1 x8 <= +0
 c150: +1 x129 -1 x9 <= +0
 c151: +1 x130 -1 x0 <= +0
 c152: +1 x131 -1 x1 <= +0
 c153: +1 x132 -1 x2 <= +0
 c154: +1 x133 -1 x3 <= +0
 c155: +1 x134 -1 x4 <= +0
 c156: +1 x135 -1 x5 <= +0
 c157: +1 x136 -1 x6 <= +0
 c158: +1 x137 -1 x7 <= +0
 c159: +1 x138 -1 x8 <= +0
 c160: +1 x139 -1 x9 <= +0
 c161: +1 x140 -1 x0 <= +0
 c162: +1 x141 -1 x1 <= +0
 c163: +1 x142 -1 x2 <= +0
 c164: +1 x143 -1 x3 <= +0
 c165: +1 x144 -1 x4 <= +0
 c166: +1 x145 -1 x5 <= +0
 c167: +1 x146 -1 x6 <= +0
 c168: +1 x147 -1 x7 <= +0
 c169: +1 x148 -1 x8 <= +0
 c170: +1 x149 -1 x9 <= +0
 c171: +1 x150 -1 x0 <= +0
 c172: +1 x151 -1 x1 <= +0
 c173: +1 x152 -1 x2 <= +0
 c174: +1 x153 -1 x3 <= +0
 c175: +1 x154 -1 x4 <= +0
 c176: +1 x155 -1 x5 <= +0
 c177: +1 x156 -1 x6 <= +0
 c178: +1 x157 -1 x7 <= +0
 c179: +1 x158 -1 x8 <= +0
 c180: +1 x159 -1 x9 <= +0
 c181: +1 x160 -1 x0 <= +0
 c182: +1 x161 -1 x1 <= +0
 c183: +1 x162 -1 x2 <= +0
 c184: +1 x163 -1 x3 <= +0
 c185: +1 x164 -1 x4 <= +0
 c186: +1 x165 -1 x5 <= +0
 c187: +1 x166 -1 x6 <= +0
 c188: +1 x167 -1 x7 <= +0
 c189: +1 x168 -1 x8 <= +0
 c190: +1 x169 -1 x9 <= +0
 c191: +1 x170 -1 x0 <= +0
 c192: +1 x171 -1 x1 <= +0
 c193: +1 x172 -1 x2 <= +0
 c194: +1 x173 -1 x3 <= +0
 c195: +1 x174 -1 x4 <= +0
 c196: +1 x175 -1 x5 <= +0
 c197: +1 x176 -1 x6 <= +0
 c198: +1 x177 -1 x7 <= +0
 c199: +1 x178 -1 x8 <= +0
 c200: +1 x179 -1 x9 <= +0
 c201: +1 x180 -1 x0 <= +0
 c202: +1 x181 -1 x1 <= +0
 c203: +1 x182 -1 x2 <= +0
 c204: +1 x183 -1 x3 <= +0
 c205: +1 x184 -1 x4 <= +0
 c206: +1 x185 -1 x5 <= +0
 c207: +1 x186 -1 x6 <= +0
 c208: +1 x187 -1 x7 <= +0
 c209: +1 x188 -1 x8 <= +0
 c210: +1 x189 -1 x9 <= +0
 c211: +1 x190 -1 x0 <= +0
 c212: +1 x191 -1 x1 <= +0
 c213: +1 x192 -1 x2 <= +0
 c214: +1 x193 -1 x3 <= +0
 c215: +1 x194 -1 x4 <= +0
 c216: +1 x195 -1 x5 <= +0
 c217: +1 x196 -1 x6 <= +0
 c218: +1 x197 -1 x7 <= +0
 c219: +1 x198 -1 x8 <= +0
 c220: +1 x199 -1 x9 <= +0
 c221: +1 x200 -1 x0 <= +0
 c222: +1 x201 -1 x1 <= +0
 c223: +1 x202 -1 x2 <= +0
 c224: +1 x203 -1 x3 <= +0
 c225: +1 x204 -1 x4 <= +0
 c226: +1 x205 -1 x5 <= +0
 c227: +1 x206 -1 x6 <= +0
 c228: +1 x207 -1 x7 <= +0
 c229: +1 x208 -1 x8 <= +0
 c230: +1 x209 -1 x9 <= +0
Bounds
 0 <= x0 <= 1
 0 <= x1 <= 1
 0 <= x2 <= 1
 0 <= x3 <= 1
 0 <= x4 <= 1
 0 <= x5 <= 1
 0 <= x6 <= 1
 0 <= x7 <= 1
 0 <= x8 <= 1
 0 <= x9 <= 1
 0 <= x10 <= 1
 0 <= x11 <= 1
 0 <= x12 <= 1
 0 <= x13 <= 1
 0 <= x14 <= 1
 0 <= x15 <= 1
 0 <= x16 <= 1
 0 <= x17 <= 1
 0 <= x18 <= 1
 0 <= x19 <= 1
 0 <= x20 <= 1
 0 <= x21 <= 1
 0 <= x22 <= 1
 0 <= x23 <= 1
 0 <= x24 <= 1
 0 <= x25 <= 1
 0 <= x26 <= 1
 0 <= x27 <= 1
 0 <= x28 <= 1
 0 <= x29 <= 1
 0 <= x30 <= 1
 0 <= x31 <= 1
 0 <= x32 <= 1
 0 <= x33 <= 1
 0 <= x34 <= 1
 0 <= x35 <= 1
 0 <= x36 <= 1
 0 <= x37 <= 1
 0 <= x38 <= 1
 0 <= x39 <= 1
 0 <= x40 <= 1
 0 <= x41 <= 1
 0 <= x42 <= 1
 0 <= x43 <= 1
 0 <= x44 <= 1
 0 <= x45 <= 1
 0 <= x46 <= 1
 0 <= x47 <= 1
 0 <= x48 <= 1
 0 <= x49 <= 1
 0 <= x50 <= 1
 0 <= x51 <= 1
 0 <= x52 <= 1
 0 <= x53 <= 1
 0 <= x54 <= 1
 0 <= x55 <= 1
 0 <= x56 <= 1
 0 <= x57 <= 1
 0 <= x58 <= 1
 0 <= x59 <= 1
 0 <= x60 <= 1
 0 <= x61 <= 1
 0 <= x62 <= 1
 0 <= x63 <= 1
 0 <= x64 <= 1
 0 <= x65 <= 1
 0 <= x66 <= 1
 0 <= x67 <= 1
 0 <= x68 <= 1
 0 <= x69 <= 1
 0 <= x70 <= 1
 0 <= x71 <= 1
 0 <= x72 <= 1
 0 <= x73 <= 1
 0 <= x74 <= 1
 0 <= x75 <= 1
 0 <= x76 <= 1
 0 <= x77 <= 1
 0 <= x78 <= 1
 0 <= x79 <= 1
 0 <= x80 <= 1
 0 <= x81 <= 1
 0 <= x82 <= 1
 0 <= x83 <= 1
 0 <= x84 <= 1
 0 <= x85 <= 1
 0 <= x86 <= 1
 0 <= x87 <= 1
 0 <= x88 <= 1
 0 <= x89 <= 1
 0 <= x90 <= 1
 0 <= x91 <= 1
 0 <= x92 <= 1
 0 <= x93 <= 1
 0 <= x94 <= 1
 0 <= x95 <= 1
 0 <= x96 <= 1
 0 <= x97 <= 1
 0 <= x98 <= 1
 0 <= x99 <= 1
 0 <= x100 <= 1
 0 <= x101 <= 1
 0 <= x102 <= 1
 0 <= x103 <= 1
 0 <= x104 <= 1
 0 <= x105 <= 1
 0 <= x106 <= 1
 0 <= x107 <= 1
 0 <= x108 <= 1
 0 <= x109 <= 1
 0 <= x110 <= 1
 0 <= x111 <= 1
 0 <= x112 <= 1
 0 <= x113 <= 1
 0 <= x114 <= 1
 0 <= x115 <= 1
 0 <= x116 <= 1
 0 <= x117 <= 1
 0 <= x118 <= 1
 0 <= x119 <= 1
 0 <= x120 <= 1
 0 <= x121 <= 1
 0 <= x122 <= 1
 0 <= x123 <= 1
 0 <= x124 <= 1
 0 <= x125 <= 1
 0 <= x126 <= 1
 0 <= x127 <= 1
 0 <= x128 <= 1
 0 <= x129 <= 1
 0 <= x130 <= 1
 0 <= x131 <= 1
 0 <= x132 <= 1
 0 <= x133 <= 1
 0 <= x134 <= 1
 0 <= x135 <= 1
 0 <= x136 <= 1
 0 <= x137 <= 1
 0 <= x138 <= 1
 0 <= x139 <= 1
 0 <= x140 <= 1
 0 <= x141 <= 1
 0 <= x142 <= 1
 0 <= x143 <= 1
 0 <= x144 <= 1
 0 <= x145 <= 1
 0 <= x146 <= 1
 0 <= x147 <= 1
 0 <= x148 <= 1
 0 <= x149 <= 1
 0 <= x150 <= 1
 0 <= x151 <= 1
 0 <= x152 <= 1
 0 <= x153 <= 1
 0 <= x154 <= 1
 0 <= x155 <= 1
 0 <= x156 <= 1
 0 <= x157 <= 1
 0 <= x158 <= 1
 0 <= x159 <= 1
 0 <= x160 <= 1
 0 <= x161 <= 1
 0 <= x162 <= 1
 0 <= x163 <= 1
 0 <= x164 <= 1
 0 <= x165 <= 1
 0 <= x166 <= 1
 0 <= x167 <= 1
 0 <= x168 <= 1
 0 <= x169 <= 1
 0 <= x170 <= 1
 0 <= x171 <= 1
 0 <= x172 <= 1
 0 <= x173 <= 1
 0 <= x174 <= 1
 0 <= x175 <= 1
 0 <= x176 <= 1
 0 <= x177 <= 1
 0 <= x178 <= 1
 0 <= x179 <= 1
 0 <= x180 <= 1
 0 <= x181 <= 1
 0 <= x182 <= 1
 0 <= x183 <= 1
 0 <= x184 <= 1
 0 <= x185 <= 1
 0 <= x186 <= 1
 0 <= x187 <= 1
 0 <= x188 <= 1
 0 <= x189 <= 1
 0 <= x190 <= 1
 0 <= x191 <= 1
 0 <= x192 <= 1
 0 <= x193 <= 1
 0 <= x194 <= 1
 0 <= x195 <= 1
 0 <= x196 <= 1
 0 <= x197 <= 1
 0 <= x198 <= 1
 0 <= x199 <= 1
 0 <= x200 <= 1
 0 <= x201 <= 1
 0 <= x202 <= 1
 0 <= x203 <= 1
 0 <= x204 <= 1
 0 <= x205 <= 1
 0 <= x206 <= 1
 0 <= x207 <= 1
 0 <= x208 <= 1
 0 <= x209 <= 1
Binaries
 x0 x1 x2 x3 x4 x5 x6 x7 x8 x9 x10 x11 x12 x13 x14 x15 x16 x17 x18 x19 x20 x21 x22 x23 x24 x25 x26 x27
 x28 x29 x30 x31 x32 x33 x34 x35 x36 x37 x38 x39 x40 x41 x42 x43 x44 x45 x46 x47 x48 x49 x50 x51 x52 x53
 x54 x55 x56 x57 x58 x59 x60 x61 x62 x63 x64 x65 x66 x67 x68 x69 x70 x71 x72 x73 x74 x75 x76 x77 x78 x79
 x80 x81 x82 x83 x84 x85 x86 x87 x88 x89 x90 x91 x92 x93 x94 x95 x96 x97 x98 x99 x100 x101 x102 x103 x104
 x105 x106 x107 x108 x109 x110 x111 x112 x113 x114 x115 x116 x117 x118 x119 x120 x121 x122 x123 x124 x125
 x126 x127 x128 x129 x130 x131 x132 x133 x134 x135 x136 x137 x138 x139 x140 x141 x142 x143 x144 x145 x146
 x147 x148 x149 x150 x151 x152 x153 x154 x155 x156 x157 x158 x159 x160 x161 x162 x163 x164 x165 x166 x167
 x168 x169 x170 x171 x172 x173 x174 x175 x176 x177 x178 x179 x180 x181 x182 x183 x184 x185 x186 x187 x188
 x189 x190 x191 x192 x193 x194 x195 x196 x197 x198 x199 x200 x201 x202 x203 x204 x205 x206 x207 x208 x209
End
